c description: Graph pigeonhole principle formula on fast_gnp_random_graph(20,10,0.5)
c generator: CNFgen (0.9.0)
c copyright: (C) 2012-2020 Massimo Lauria <massimo.lauria@uniroma1.it>
c url: https://massimolauria.net/cnfgen
c
p cnf 102 510
1 2 3 4 0
5 6 7 8 0
9 10 11 12 13 0
14 15 16 17 0
18 19 20 21 22 23 0
24 25 26 27 28 0
29 30 31 32 33 0
34 35 36 37 38 39 40 0
41 42 43 44 0
45 46 47 48 49 0
50 51 52 53 54 0
55 56 57 0
58 59 60 61 62 63 0
64 65 66 67 68 69 0
70 71 72 73 74 0
75 76 77 78 79 80 0
81 82 83 84 85 86 87 0
88 89 90 0
91 92 93 94 95 96 97 0
98 99 100 101 102 0
-5 -14 0
-5 -18 0
-5 -29 0
-5 -34 0
-5 -45 0
-5 -58 0
-5 -64 0
-5 -70 0
-5 -75 0
-5 -81 0
-14 -18 0
-14 -29 0
-14 -34 0
-14 -45 0
-14 -58 0
-14 -64 0
-14 -70 0
-14 -75 0
-14 -81 0
-18 -29 0
-18 -34 0
-18 -45 0
-18 -58 0
-18 -64 0
-18 -70 0
-18 -75 0
-18 -81 0
-29 -34 0
-29 -45 0
-29 -58 0
-29 -64 0
-29 -70 0
-29 -75 0
-29 -81 0
-34 -45 0
-34 -58 0
-34 -64 0
-34 -70 0
-34 -75 0
-34 -81 0
-45 -58 0
-45 -64 0
-45 -70 0
-45 -75 0
-45 -81 0
-58 -64 0
-58 -70 0
-58 -75 0
-58 -81 0
-64 -70 0
-64 -75 0
-64 -81 0
-70 -75 0
-70 -81 0
-75 -81 0
-6 -9 0
-6 -15 0
-6 -19 0
-6 -41 0
-6 -50 0
-6 -55 0
-6 -59 0
-6 -71 0
-6 -91 0
-6 -98 0
-9 -15 0
-9 -19 0
-9 -41 0
-9 -50 0
-9 -55 0
-9 -59 0
-9 -71 0
-9 -91 0
-9 -98 0
-15 -19 0
-15 -41 0
-15 -50 0
-15 -55 0
-15 -59 0
-15 -71 0
-15 -91 0
-15 -98 0
-19 -41 0
-19 -50 0
-19 -55 0
-19 -59 0
-19 -71 0
-19 -91 0
-19 -98 0
-41 -50 0
-41 -55 0
-41 -59 0
-41 -71 0
-41 -91 0
-41 -98 0
-50 -55 0
-50 -59 0
-50 -71 0
-50 -91 0
-50 -98 0
-55 -59 0
-55 -71 0
-55 -91 0
-55 -98 0
-59 -71 0
-59 -91 0
-59 -98 0
-71 -91 0
-71 -98 0
-91 -98 0
-1 -10 0
-1 -20 0
-1 -24 0
-1 -30 0
-1 -35 0
-1 -42 0
-1 -46 0
-1 -51 0
-1 -56 0
-1 -60 0
-1 -65 0
-1 -76 0
-1 -92 0
-10 -20 0
-10 -24 0
-10 -30 0
-10 -35 0
-10 -42 0
-10 -46 0
-10 -51 0
-10 -56 0
-10 -60 0
-10 -65 0
-10 -76 0
-10 -92 0
-20 -24 0
-20 -30 0
-20 -35 0
-20 -42 0
-20 -46 0
-20 -51 0
-20 -56 0
-20 -60 0
-20 -65 0
-20 -76 0
-20 -92 0
-24 -30 0
-24 -35 0
-24 -42 0
-24 -46 0
-24 -51 0
-24 -56 0
-24 -60 0
-24 -65 0
-24 -76 0
-24 -92 0
-30 -35 0
-30 -42 0
-30 -46 0
-30 -51 0
-30 -56 0
-30 -60 0
-30 -65 0
-30 -76 0
-30 -92 0
-35 -42 0
-35 -46 0
-35 -51 0
-35 -56 0
-35 -60 0
-35 -65 0
-35 -76 0
-35 -92 0
-42 -46 0
-42 -51 0
-42 -56 0
-42 -60 0
-42 -65 0
-42 -76 0
-42 -92 0
-46 -51 0
-46 -56 0
-46 -60 0
-46 -65 0
-46 -76 0
-46 -92 0
-51 -56 0
-51 -60 0
-51 -65 0
-51 -76 0
-51 -92 0
-56 -60 0
-56 -65 0
-56 -76 0
-56 -92 0
-60 -65 0
-60 -76 0
-60 -92 0
-65 -76 0
-65 -92 0
-76 -92 0
-11 -25 0
-11 -36 0
-11 -43 0
-11 -52 0
-11 -66 0
-11 -77 0
-11 -82 0
-11 -93 0
-11 -99 0
-25 -36 0
-25 -43 0
-25 -52 0
-25 -66 0
-25 -77 0
-25 -82 0
-25 -93 0
-25 -99 0
-36 -43 0
-36 -52 0
-36 -66 0
-36 -77 0
-36 -82 0
-36 -93 0
-36 -99 0
-43 -52 0
-43 -66 0
-43 -77 0
-43 -82 0
-43 -93 0
-43 -99 0
-52 -66 0
-52 -77 0
-52 -82 0
-52 -93 0
-52 -99 0
-66 -77 0
-66 -82 0
-66 -93 0
-66 -99 0
-77 -82 0
-77 -93 0
-77 -99 0
-82 -93 0
-82 -99 0
-93 -99 0
-21 -26 0
-21 -31 0
-21 -37 0
-21 -57 0
-21 -67 0
-21 -78 0
-21 -83 0
-21 -88 0
-21 -94 0
-26 -31 0
-26 -37 0
-26 -57 0
-26 -67 0
-26 -78 0
-26 -83 0
-26 -88 0
-26 -94 0
-31 -37 0
-31 -57 0
-31 -67 0
-31 -78 0
-31 -83 0
-31 -88 0
-31 -94 0
-37 -57 0
-37 -67 0
-37 -78 0
-37 -83 0
-37 -88 0
-37 -94 0
-57 -67 0
-57 -78 0
-57 -83 0
-57 -88 0
-57 -94 0
-67 -78 0
-67 -83 0
-67 -88 0
-67 -94 0
-78 -83 0
-78 -88 0
-78 -94 0
-83 -88 0
-83 -94 0
-88 -94 0
-2 -22 0
-2 -32 0
-2 -38 0
-2 -44 0
-2 -47 0
-2 -53 0
-2 -68 0
-2 -79 0
-2 -84 0
-2 -89 0
-2 -95 0
-22 -32 0
-22 -38 0
-22 -44 0
-22 -47 0
-22 -53 0
-22 -68 0
-22 -79 0
-22 -84 0
-22 -89 0
-22 -95 0
-32 -38 0
-32 -44 0
-32 -47 0
-32 -53 0
-32 -68 0
-32 -79 0
-32 -84 0
-32 -89 0
-32 -95 0
-38 -44 0
-38 -47 0
-38 -53 0
-38 -68 0
-38 -79 0
-38 -84 0
-38 -89 0
-38 -95 0
-44 -47 0
-44 -53 0
-44 -68 0
-44 -79 0
-44 -84 0
-44 -89 0
-44 -95 0
-47 -53 0
-47 -68 0
-47 -79 0
-47 -84 0
-47 -89 0
-47 -95 0
-53 -68 0
-53 -79 0
-53 -84 0
-53 -89 0
-53 -95 0
-68 -79 0
-68 -84 0
-68 -89 0
-68 -95 0
-79 -84 0
-79 -89 0
-79 -95 0
-84 -89 0
-84 -95 0
-89 -95 0
-12 -16 0
-12 -23 0
-12 -48 0
-12 -72 0
-12 -80 0
-12 -100 0
-16 -23 0
-16 -48 0
-16 -72 0
-16 -80 0
-16 -100 0
-23 -48 0
-23 -72 0
-23 -80 0
-23 -100 0
-48 -72 0
-48 -80 0
-48 -100 0
-72 -80 0
-72 -100 0
-80 -100 0
-3 -7 0
-3 -27 0
-3 -39 0
-3 -49 0
-3 -54 0
-3 -61 0
-3 -73 0
-3 -85 0
-3 -96 0
-3 -101 0
-7 -27 0
-7 -39 0
-7 -49 0
-7 -54 0
-7 -61 0
-7 -73 0
-7 -85 0
-7 -96 0
-7 -101 0
-27 -39 0
-27 -49 0
-27 -54 0
-27 -61 0
-27 -73 0
-27 -85 0
-27 -96 0
-27 -101 0
-39 -49 0
-39 -54 0
-39 -61 0
-39 -73 0
-39 -85 0
-39 -96 0
-39 -101 0
-49 -54 0
-49 -61 0
-49 -73 0
-49 -85 0
-49 -96 0
-49 -101 0
-54 -61 0
-54 -73 0
-54 -85 0
-54 -96 0
-54 -101 0
-61 -73 0
-61 -85 0
-61 -96 0
-61 -101 0
-73 -85 0
-73 -96 0
-73 -101 0
-85 -96 0
-85 -101 0
-96 -101 0
-4 -13 0
-4 -33 0
-4 -40 0
-4 -62 0
-4 -86 0
-4 -102 0
-13 -33 0
-13 -40 0
-13 -62 0
-13 -86 0
-13 -102 0
-33 -40 0
-33 -62 0
-33 -86 0
-33 -102 0
-40 -62 0
-40 -86 0
-40 -102 0
-62 -86 0
-62 -102 0
-86 -102 0
-8 -17 0
-8 -28 0
-8 -63 0
-8 -69 0
-8 -74 0
-8 -87 0
-8 -90 0
-8 -97 0
-17 -28 0
-17 -63 0
-17 -69 0
-17 -74 0
-17 -87 0
-17 -90 0
-17 -97 0
-28 -63 0
-28 -69 0
-28 -74 0
-28 -87 0
-28 -90 0
-28 -97 0
-63 -69 0
-63 -74 0
-63 -87 0
-63 -90 0
-63 -97 0
-69 -74 0
-69 -87 0
-69 -90 0
-69 -97 0
-74 -87 0
-74 -90 0
-74 -97 0
-87 -90 0
-87 -97 0
-90 -97 0